; ./prepared/seahorn/./sv_comp_flat_small/ssh/s3_srvr.blast.11_true-unreach-call.i.cil.c.flat_000.smt2
(set-logic HORN)


(declare-fun |main_1| ( Int Int Int Bool Bool Bool Int Bool Int Int Bool Bool ) Bool)

(assert
  (forall ( (A Int) (B Int) (C Bool) (D Bool) (E Bool) (F Int) (G Bool) (H Int) (I Int) (J Bool) (K Bool) (v_11 Int) ) 
    (=>
      (and
        (and true (= 0 v_11))
      )
      (main_1 v_11 A B C D E F G H I J K)
    )
  )
)
(assert
  (forall ( (A Int) (B Int) (C Int) (D Int) (E Int) (F Int) (G Int) (H Int) (I Int) (J Int) (K Int) (L Int) (M Int) (N Int) (O Int) (P Int) (Q Int) (R Int) (S Int) (T Int) (U Int) (V Bool) (W Int) (X Int) (Y Int) (Z Int) (A1 Int) (B1 Int) (C1 Int) (D1 Int) (E1 Int) (F1 Int) (G1 Int) (H1 Int) (I1 Int) (J1 Int) (K1 Int) (L1 Int) (M1 Int) (N1 Int) (O1 Bool) (P1 Int) (Q1 Bool) (R1 Int) (S1 Int) (T1 Bool) (U1 Int) (V1 Int) (W1 Int) (X1 Int) (Y1 Int) (Z1 Int) (A2 Int) (B2 Bool) (C2 Bool) (D2 Bool) (E2 Int) (F2 Int) (G2 Bool) (H2 Bool) (I2 Bool) (J2 Int) (K2 Bool) (L2 Int) (M2 Int) (N2 Bool) (O2 Bool) (P2 Bool) (Q2 Int) (R2 Bool) (S2 Bool) (T2 Int) (U2 Int) (V2 Int) (W2 Int) (v_75 Int) (v_76 Int) ) 
    (=>
      (and
        (main_1 v_75 E2 F2 G2 H2 I2 J2 K2 L2 M2 N2 O2)
        (and (= 0 v_75)
     (= D2 (= J 0))
     (= C2 (= I 0))
     (= T1 (= F 0))
     (= Q1 (= E 0))
     (= O1 (= D 0))
     (= V (= U 0))
     (= A2 Z1)
     (= Z1 (+ 24 A))
     (= Y1 (* 8 G))
     (= X1 W1)
     (= W1 (+ 232 A))
     (= V1 U1)
     (= U1 (+ 48 A))
     (= S1 R1)
     (= R1 (+ 204 A))
     (= P1 M1)
     (= N1 M1)
     (= M1 (+ 60 A))
     (= L1 K1)
     (= K1 (+ 4 A))
     (= J1 A)
     (= I1 H1)
     (= H1 (+ 36 A))
     (= G1 F1)
     (= F1 (+ 40 A))
     (= E1 D1)
     (= D1 (+ 208 A))
     (= C1 B1)
     (= B1 (+ 64 A))
     (= A1 Z)
     (= Z (+ 176 A))
     (= Y B)
     (= X W)
     (= W (+ 180 A))
     (= T S)
     (= S (+ 136 A))
     (= R (+ 1 Q))
     (= P O)
     (= O (+ 28 A))
     (= N M)
     (= M (+ 92 A))
     (= L K)
     (= K (+ 52 A))
     (= C B)
     (= B (+ 84 A))
     (or (= W2 U2) (not S2) (not P2))
     (or (= V2 T2) (not S2) (not P2))
     (or (= U2 0) (not S2) (not P2))
     (or (= T2 Q2) (not S2) (not P2))
     (or (not R2) (and P2 S2))
     (= R2 true)
     (not V)
     (not (= (<= 1 H) B2))
     (= 1 v_76))
      )
      (main_1 v_76 V2 W2 T1 Q1 O1 J2 B2 H Y1 C2 D2)
    )
  )
)
(assert
  (forall ( (A Int) (B Int) (C Bool) (D Bool) (E Bool) (F Int) (G Bool) (H Int) (I Int) (J Bool) (K Bool) (L Bool) (M Int) (N Bool) (O Bool) (P Int) (Q Int) (v_17 Int) (v_18 Int) ) 
    (=>
      (and
        (main_1 v_17 A B C D E F G H I J K)
        (and (= 1 v_17)
     (or (= P M) (not O) (not L))
     (or (not N) (and L O))
     (= N true)
     (or (= Q P) (not O) (not L))
     (= 2 v_18))
      )
      (main_1 v_18 A B C D E Q G H I J K)
    )
  )
)
(assert
  (forall ( (A Int) (B Bool) (C Int) (D Bool) (E Int) (F Int) (G Int) (H Bool) (I Bool) (J Bool) (K Int) (L Int) (M Int) (N Int) (O Int) (P Int) (Q Int) (R Int) (S Int) (T Bool) (U Int) (V Bool) (W Bool) (X Int) (Y Bool) (Z Int) (A1 Bool) (B1 Int) (C1 Bool) (D1 Bool) (E1 Int) (F1 Bool) (G1 Int) (H1 Int) (I1 Int) (J1 Bool) (K1 Int) (L1 Bool) (M1 Bool) (N1 Bool) (O1 Int) (P1 Int) (Q1 Bool) (R1 Int) (S1 Bool) (T1 Int) (U1 Bool) (V1 Bool) (W1 Int) (X1 Bool) (Y1 Int) (Z1 Bool) (A2 Int) (B2 Int) (C2 Bool) (D2 Bool) (E2 Bool) (F2 Bool) (G2 Int) (H2 Bool) (I2 Bool) (J2 Int) (K2 Bool) (L2 Int) (M2 Int) (N2 Bool) (O2 Bool) (P2 Int) (Q2 Bool) (R2 Bool) (S2 Int) (T2 Int) (U2 Int) (V2 Int) (W2 Int) (X2 Bool) (Y2 Int) (Z2 Int) (A3 Int) (B3 Bool) (C3 Int) (D3 Bool) (E3 Bool) (F3 Int) (G3 Int) (H3 Int) (I3 Bool) (J3 Int) (K3 Int) (L3 Int) (M3 Int) (N3 Bool) (O3 Int) (P3 Int) (Q3 Int) (R3 Bool) (S3 Int) (T3 Bool) (U3 Int) (V3 Int) (W3 Int) (X3 Int) (Y3 Int) (Z3 Int) (A4 Int) (B4 Int) (C4 Bool) (D4 Int) (E4 Int) (F4 Int) (G4 Bool) (H4 Int) (I4 Bool) (J4 Bool) (K4 Int) (L4 Bool) (M4 Bool) (N4 Int) (O4 Int) (P4 Bool) (Q4 Int) (R4 Int) (S4 Int) (T4 Int) (U4 Bool) (V4 Int) (W4 Bool) (X4 Bool) (Y4 Int) (Z4 Int) (A5 Int) (B5 Int) (C5 Bool) (D5 Int) (E5 Bool) (F5 Bool) (G5 Int) (H5 Bool) (I5 Int) (J5 Bool) (K5 Bool) (L5 Bool) (M5 Bool) (N5 Bool) (O5 Int) (P5 Bool) (Q5 Int) (R5 Int) (S5 Int) (T5 Bool) (U5 Int) (V5 Bool) (W5 Int) (X5 Bool) (Y5 Bool) (Z5 Int) (A6 Bool) (B6 Bool) (C6 Int) (D6 Bool) (E6 Int) (F6 Bool) (G6 Int) (H6 Bool) (I6 Int) (J6 Bool) (K6 Bool) (L6 Int) (M6 Bool) (N6 Int) (O6 Bool) (P6 Bool) (Q6 Bool) (R6 Int) (S6 Bool) (T6 Bool) (U6 Int) (V6 Bool) (W6 Bool) (X6 Bool) (Y6 Bool) (Z6 Int) (A7 Int) (B7 Int) (C7 Int) (D7 Int) (E7 Bool) (F7 Bool) (G7 Int) (H7 Int) (I7 Int) (J7 Int) (K7 Bool) (L7 Bool) (M7 Bool) (N7 Bool) (O7 Bool) (P7 Bool) (Q7 Bool) (R7 Bool) (S7 Bool) (T7 Bool) (U7 Bool) (V7 Int) (W7 Int) (X7 Bool) (Y7 Bool) (Z7 Bool) (A8 Int) (B8 Bool) (C8 Int) (D8 Int) (E8 Bool) (F8 Bool) (G8 Bool) (H8 Int) (I8 Int) (J8 Int) (K8 Int) (L8 Bool) (M8 Bool) (N8 Bool) (O8 Bool) (P8 Bool) (Q8 Bool) (R8 Bool) (S8 Bool) (T8 Bool) (U8 Bool) (V8 Bool) (W8 Bool) (X8 Bool) (Y8 Bool) (Z8 Bool) (A9 Bool) (B9 Bool) (C9 Bool) (D9 Bool) (E9 Bool) (F9 Bool) (G9 Bool) (H9 Bool) (I9 Bool) (J9 Bool) (K9 Bool) (L9 Bool) (M9 Bool) (N9 Bool) (O9 Int) (P9 Bool) (Q9 Bool) (R9 Bool) (S9 Bool) (T9 Bool) (U9 Bool) (V9 Bool) (W9 Bool) (X9 Bool) (Y9 Bool) (Z9 Int) (A10 Bool) (B10 Bool) (C10 Bool) (D10 Bool) (E10 Bool) (F10 Bool) (G10 Bool) (H10 Bool) (I10 Bool) (J10 Bool) (K10 Bool) (L10 Bool) (M10 Bool) (N10 Bool) (O10 Bool) (P10 Bool) (Q10 Int) (R10 Int) (S10 Int) (T10 Bool) (U10 Bool) (V10 Bool) (W10 Bool) (X10 Bool) (Y10 Bool) (Z10 Bool) (A11 Bool) (B11 Bool) (C11 Bool) (D11 Bool) (E11 Bool) (F11 Bool) (G11 Bool) (H11 Bool) (I11 Bool) (J11 Bool) (K11 Bool) (L11 Bool) (M11 Bool) (N11 Bool) (O11 Bool) (P11 Bool) (Q11 Bool) (R11 Bool) (S11 Bool) (T11 Bool) (U11 Bool) (V11 Bool) (W11 Bool) (X11 Bool) (Y11 Bool) (Z11 Bool) (A12 Bool) (B12 Bool) (C12 Bool) (D12 Int) (E12 Bool) (F12 Bool) (G12 Int) (H12 Bool) (I12 Bool) (J12 Int) (K12 Int) (L12 Bool) (M12 Bool) (N12 Bool) (O12 Bool) (P12 Bool) (Q12 Bool) (R12 Int) (S12 Bool) (T12 Bool) (U12 Bool) (V12 Bool) (W12 Bool) (X12 Bool) (Y12 Int) (Z12 Bool) (A13 Bool) (B13 Bool) (C13 Bool) (D13 Bool) (E13 Bool) (F13 Int) (G13 Bool) (H13 Bool) (I13 Bool) (J13 Bool) (K13 Bool) (L13 Int) (M13 Int) (N13 Int) (O13 Int) (P13 Int) (Q13 Int) (R13 Int) (S13 Int) (T13 Bool) (U13 Bool) (V13 Bool) (W13 Bool) (X13 Bool) (Y13 Bool) (Z13 Int) (A14 Bool) (B14 Bool) (C14 Bool) (D14 Int) (E14 Int) (F14 Int) (G14 Int) (H14 Bool) (I14 Bool) (J14 Bool) (K14 Bool) (L14 Bool) (M14 Bool) (N14 Int) (O14 Bool) (P14 Bool) (Q14 Bool) (R14 Bool) (S14 Bool) (T14 Bool) (U14 Bool) (V14 Bool) (W14 Bool) (X14 Bool) (Y14 Bool) (Z14 Bool) (A15 Bool) (B15 Bool) (C15 Bool) (D15 Bool) (E15 Int) (F15 Bool) (G15 Bool) (H15 Bool) (I15 Bool) (J15 Bool) (K15 Bool) (L15 Bool) (M15 Bool) (N15 Bool) (O15 Int) (P15 Int) (Q15 Bool) (R15 Bool) (S15 Bool) (T15 Bool) (U15 Bool) (V15 Bool) (W15 Bool) (X15 Bool) (Y15 Bool) (Z15 Bool) (A16 Bool) (B16 Bool) (C16 Bool) (D16 Bool) (E16 Bool) (F16 Bool) (G16 Bool) (H16 Bool) (I16 Bool) (J16 Bool) (K16 Bool) (L16 Bool) (M16 Bool) (N16 Bool) (O16 Bool) (P16 Bool) (Q16 Bool) (R16 Bool) (S16 Int) (T16 Bool) (U16 Bool) (V16 Bool) (W16 Int) (X16 Bool) (Y16 Bool) (Z16 Bool) (A17 Bool) (B17 Bool) (C17 Bool) (D17 Bool) (E17 Bool) (F17 Bool) (G17 Bool) (H17 Bool) (I17 Bool) (J17 Bool) (K17 Bool) (L17 Bool) (M17 Bool) (N17 Bool) (O17 Bool) (P17 Bool) (Q17 Bool) (R17 Bool) (S17 Bool) (T17 Bool) (U17 Bool) (V17 Bool) (W17 Bool) (X17 Bool) (Y17 Bool) (Z17 Bool) (A18 Bool) (B18 Bool) (C18 Bool) (D18 Bool) (E18 Bool) (F18 Bool) (G18 Bool) (H18 Int) (I18 Int) (J18 Int) (K18 Int) (L18 Int) (M18 Int) (N18 Int) (O18 Int) (P18 Int) (Q18 Int) (R18 Int) (S18 Int) (T18 Int) (U18 Int) (V18 Int) (W18 Int) (X18 Int) (Y18 Int) (Z18 Int) (A19 Int) (B19 Int) (C19 Int) (D19 Int) (E19 Int) (F19 Int) (G19 Int) (H19 Int) (I19 Int) (J19 Int) (K19 Int) (L19 Int) (M19 Int) (N19 Int) (O19 Int) (P19 Int) (Q19 Int) (R19 Int) (S19 Int) (T19 Int) (U19 Int) (V19 Int) (W19 Int) (X19 Int) (Y19 Int) (Z19 Int) (A20 Int) (B20 Int) (C20 Int) (D20 Int) (E20 Int) (F20 Int) (G20 Int) (H20 Int) (I20 Int) (J20 Bool) (K20 Bool) (L20 Bool) (M20 Bool) (N20 Bool) (O20 Bool) (P20 Bool) (Q20 Bool) (R20 Bool) (v_538 Int) (v_539 Int) ) 
    (=>
      (and
        (main_1 v_538 V7 W7 X7 Y7 Z7 A8 B8 C8 D8 E8 F8)
        (let ((a!1 (or (not T16) (not (= (<= 1 B1) C1))))
      (a!2 (or (not Q15) (not (= (<= 8195 A8) N1))))
      (a!3 (or (not H15) (not (= (<= V7 0) Q1))))
      (a!4 (or (not C15) (not (= (<= 1 T1) U1))))
      (a!5 (or (not Y14) (not (= (<= 1 Y1) Z1))))
      (a!6 (or (not W14) (not (= (<= 8480 A8) C2))))
      (a!7 (or (not U14) (not (= (<= 8464 A8) D2))))
      (a!8 (or (not S14) (not (= (<= 8448 A8) E2))))
      (a!9 (or (not L14) (not (= (<= 1 G2) H2))))
      (a!10 (or (not H14) (not (= (<= 8496 A8) O2))))
      (a!11 (or (not X13) (not (= (<= 1 P2) R2))))
      (a!12 (or (not B13) (not (= (<= 1 C3) E3))))
      (a!13 (or (not Z12) (not (= (<= D8 H3) I3))))
      (a!14 (or (not P12) (not (= (= A4 0) C4))))
      (a!15 (or (not L12) (not (= (<= 1 K12) M4))))
      (a!16 (or (not E12) (not (= (= T4 0) U4))))
      (a!17 (or (not V11) (not (= (<= 8544 A8) K5))))
      (a!18 (or (not T11) (not (= (<= 8528 A8) L5))))
      (a!19 (or (not R11) (not (= (<= 8512 A8) M5))))
      (a!20 (or (not P11) (not (= (<= 8482 A8) N5))))
      (a!21 (or (not N11) (not (= (<= 1 O5) P5))))
      (a!22 (or (not H11) (not (= (<= 1 U5) V5))))
      (a!23 (or (not F11) (not (= (<= 1 W5) X5))))
      (a!24 (or (not B11) (not (= (<= 8576 A8) B6))))
      (a!25 (or (not Z10) (not (= (<= 1 C6) D6))))
      (a!26 (or (not V10) (not (= (<= 1 G6) H6))))
      (a!27 (or (not M10) (not (= (<= 1 Z9) K6))))
      (a!28 (or (not A10) (not (= (<= 7 W7) S6))))
      (a!29 (or (not X9) (not (= (<= 5 W7) T6))))
      (a!30 (or (not T9) (not (= (<= 8640 A8) W6))))
      (a!31 (or (not R9) (not (= (<= 8608 A8) X6))))
      (a!32 (or (not P9) (not (= (<= 8592 A8) Y6))))
      (a!33 (or (not M9) (not (= (<= 1 D7) E7))))
      (a!34 (or (not E9) (not (= (<= 8672 A8) M7))))
      (a!35 (or (not U8) (not (= (<= 24576 A8) Q7))))
      (a!36 (or (not S8) (not (= (<= 16384 A8) R7))))
      (a!37 (or (not Q8) (not (= (<= 12292 A8) S7))))
      (a!38 (or (not O8) (not (= (<= 8656 A8) T7))))
      (a!39 (or (not M8) (not (= (<= 8560 A8) U7))))
      (a!40 (or (not L20) (not (= (<= 1 A) B)))))
  (and (= 2 v_538)
       (or (and T16 P17)
           (and M9 Q17)
           (and M10 R17)
           (and V10 S17)
           (and Z10 T17)
           (and H11 U17)
           (and J11 V17)
           (and L15 W17)
           (and N11 X17)
           (and L12 Y17)
           (and G13 Z17)
           (and A14 A18)
           (and L14 B18)
           (and C15 C18)
           (and Q14 D18)
           (and Y14 E18)
           (and M17 F18)
           (and K17 G18)
           (not O17))
       (or (and W8 Y16) (and Y8 Z16) (and S15 A17) (and U15 B17) (not X16))
       (or (and B13 H13) (and Z12 I13) (and W12 J13) (and S12 K13) (not G13))
       (or (and Z12 C13) (and U12 D13) (and P12 E13) (not B13))
       (or (and I10 N10) (and G10 O10) (and C10 P10) (not M10))
       (or (and G10 J10) (and E10 K10) (and C10 L10) (not I10))
       (or (and L20 O20) (and J20 P20) (not N20) (and Q20 O17))
       (or (= F20 W7) (not F18) (not M17))
       (or (= D20 V7) (not F18) (not M17))
       (or (= I7 F20) (not F18) (not M17))
       (or (= H7 E20) (not F18) (not M17))
       (or (= G7 D20) (not F18) (not M17))
       (or (= E20 0) (not F18) (not M17))
       (or (= I7 I20) (not K17) (not G18))
       (or (= H7 H20) (not K17) (not G18))
       (or (= G7 G20) (not K17) (not G18))
       (or (= G20 V7) (not K17) (not G18))
       (or (= I20 W7) (not K17) (not G18))
       (or (= H20 0) (not K17) (not G18))
       (or (and F17 I17) (and C17 J17) (not H17))
       (or (and X16 D17) (and C9 E17) (not C17))
       (or (and I9 U16) (and Q16 V16) (not T16))
       (or (= I7 J18) (not P17) (not T16))
       (or (= H7 I18) (not P17) (not T16))
       (or (= G7 H18) (not P17) (not T16))
       (or (= J18 W16) (not P17) (not T16))
       (or (= I18 0) (not P17) (not T16))
       (or (= H18 V7) (not P17) (not T16))
       (or (= S16 A8) (not W15) (not R16))
       (or (= K1 S16) (not W15) (not R16))
       (or (and J15 M15) (and H15 N15) (not L15))
       (or (= I7 E19) (not L15) (not W17))
       (or (= H7 D19) (not L15) (not W17))
       (or (= G7 C19) (not L15) (not W17))
       (or (= E19 W7) (not L15) (not W17))
       (or (= D19 0) (not L15) (not W17))
       (or (= C19 R1) (not L15) (not W17))
       (or (= O15 C8) (not J15) (not M15))
       (or (= R1 O15) (not J15) (not M15))
       (or (= P15 V7) (not H15) (not N15))
       (or (= R1 P15) (not H15) (not N15))
       (or (= W19 E15) (not C18) (not C15))
       (or (= I7 W19) (not C18) (not C15))
       (or (= H7 V19) (not C18) (not C15))
       (or (= G7 U19) (not C18) (not C15))
       (or (= V19 0) (not C18) (not C15))
       (or (= U19 V7) (not C18) (not C15))
       (or (= I7 C20) (not E18) (not Y14))
       (or (= H7 B20) (not E18) (not Y14))
       (or (= G7 A20) (not E18) (not Y14))
       (or (= C20 W7) (not E18) (not Y14))
       (or (= B20 0) (not E18) (not Y14))
       (or (= A20 V7) (not E18) (not Y14))
       (or (= Y19 0) (not D18) (not Q14))
       (or (= X19 V7) (not D18) (not Q14))
       (or (= I7 Z19) (not D18) (not Q14))
       (or (= H7 Y19) (not D18) (not Q14))
       (or (= G7 X19) (not D18) (not Q14))
       (or (= Z19 W7) (not D18) (not Q14))
       (or (= I7 T19) (not L14) (not B18))
       (or (= H7 S19) (not L14) (not B18))
       (or (= G7 R19) (not L14) (not B18))
       (or (= T19 N14) (not L14) (not B18))
       (or (= S19 0) (not L14) (not B18))
       (or (= R19 V7) (not L14) (not B18))
       (or (and X13 B14) (and V13 C14) (not A14))
       (or (= O19 V7) (not A14) (not A18))
       (or (= I7 Q19) (not A14) (not A18))
       (or (= H7 P19) (not A14) (not A18))
       (or (= G7 O19) (not A14) (not A18))
       (or (= Q19 Z2) (not A14) (not A18))
       (or (= P19 Y2) (not A14) (not A18))
       (or (= E14 Z13) (not X13) (not B14))
       (or (= D14 0) (not X13) (not B14))
       (or (= Z2 E14) (not X13) (not B14))
       (or (= Y2 D14) (not X13) (not B14))
       (or (= G14 W7) (not V13) (not C14))
       (or (= F14 1) (not V13) (not C14))
       (or (= Z2 G14) (not V13) (not C14))
       (or (= Y2 F14) (not V13) (not C14))
       (or (= L19 V7) (not Z17) (not G13))
       (or (= I7 N19) (not Z17) (not G13))
       (or (= H7 M19) (not Z17) (not G13))
       (or (= G7 L19) (not Z17) (not G13))
       (or (= N19 V3) (not Z17) (not G13))
       (or (= M19 U3) (not Z17) (not G13))
       (or (= M13 F13) (not B13) (not H13))
       (or (= L13 0) (not B13) (not H13))
       (or (= V3 M13) (not B13) (not H13))
       (or (= U3 L13) (not B13) (not H13))
       (or (= O13 W7) (not Z12) (not I13))
       (or (= N13 1) (not Z12) (not I13))
       (or (= V3 O13) (not Z12) (not I13))
       (or (= U3 N13) (not Z12) (not I13))
       (or (= Q13 W7) (not W12) (not J13))
       (or (= P13 1) (not W12) (not J13))
       (or (= V3 Q13) (not W12) (not J13))
       (or (= U3 P13) (not W12) (not J13))
       (or (= S13 W7) (not S12) (not K13))
       (or (= R13 1) (not S12) (not K13))
       (or (= V3 S13) (not S12) (not K13))
       (or (= U3 R13) (not S12) (not K13))
       (or (= J19 0) (not L12) (not Y17))
       (or (= I7 K19) (not L12) (not Y17))
       (or (= H7 J19) (not L12) (not Y17))
       (or (= G7 I19) (not L12) (not Y17))
       (or (= K19 W7) (not L12) (not Y17))
       (or (= I19 V7) (not L12) (not Y17))
       (or (= J12 Y4) (not E12) (not I12))
       (or (= Y4 G12) (not E12) (not I12))
       (or (= I7 H19) (not N11) (not X17))
       (or (= H7 G19) (not N11) (not X17))
       (or (= G7 F19) (not N11) (not X17))
       (or (= H19 W7) (not N11) (not X17))
       (or (= G19 0) (not N11) (not X17))
       (or (= F19 V7) (not N11) (not X17))
       (or (= I7 B19) (not J11) (not V17))
       (or (= H7 A19) (not J11) (not V17))
       (or (= G7 Z18) (not J11) (not V17))
       (or (= B19 W7) (not J11) (not V17))
       (or (= A19 0) (not J11) (not V17))
       (or (= Z18 V7) (not J11) (not V17))
       (or (= I7 Y18) (not H11) (not U17))
       (or (= H7 X18) (not H11) (not U17))
       (or (= G7 W18) (not H11) (not U17))
       (or (= Y18 W7) (not H11) (not U17))
       (or (= X18 0) (not H11) (not U17))
       (or (= W18 V7) (not H11) (not U17))
       (or (= I7 V18) (not Z10) (not T17))
       (or (= H7 U18) (not Z10) (not T17))
       (or (= G7 T18) (not Z10) (not T17))
       (or (= V18 W7) (not Z10) (not T17))
       (or (= U18 0) (not Z10) (not T17))
       (or (= T18 V7) (not Z10) (not T17))
       (or (= Q18 V7) (not V10) (not S17))
       (or (= I7 S18) (not V10) (not S17))
       (or (= H7 R18) (not V10) (not S17))
       (or (= G7 Q18) (not V10) (not S17))
       (or (= S18 W7) (not V10) (not S17))
       (or (= R18 0) (not V10) (not S17))
       (or (= I7 P18) (not M10) (not R17))
       (or (= H7 O18) (not M10) (not R17))
       (or (= G7 N18) (not M10) (not R17))
       (or (= P18 R6) (not M10) (not R17))
       (or (= O18 0) (not M10) (not R17))
       (or (= N18 V7) (not M10) (not R17))
       (or (= Q10 W7) (not I10) (not N10))
       (or (= R6 Q10) (not I10) (not N10))
       (or (= R10 5) (not G10) (not O10))
       (or (= R6 R10) (not G10) (not O10))
       (or (= S10 8) (not C10) (not P10))
       (or (= R6 S10) (not C10) (not P10))
       (or (= I7 M18) (not M9) (not Q17))
       (or (= H7 L18) (not M9) (not Q17))
       (or (= G7 K18) (not M9) (not Q17))
       (or (= M18 O9) (not M9) (not Q17))
       (or (= L18 0) (not M9) (not Q17))
       (or (= K18 V7) (not M9) (not Q17))
       (or U7 (not M8) (not Q11))
       (or (not U7) (not M8) (not P8))
       (or T7 (not O8) (not Q9))
       (or (not T7) (not O8) (not R8))
       (or S7 (not Q8) (not F9))
       (or (not S7) (not Q8) (not T8))
       (or R7 (not S8) (not B9))
       (or (not R7) (not S8) (not V8))
       (or Q7 (not U8) (not Z8))
       (or (not Q7) (not U8) (not X8))
       (or P7 (not W8) (not Y16))
       (or (not P7) (not W8) (not X15))
       (or O7 (not Y8) (not Z16))
       (or (not O7) (not Y8) (not Y15))
       (or (not N7) (not A9) (not Z15))
       (or N7 (not A9) (not D9))
       (or M7 (not E9) (not L9))
       (or (not M7) (not E9) (not H9))
       (or (not L7) (not G9) (not A16))
       (or L7 (not G9) (not J9))
       (or (not K7) (not K9) (not B16))
       (or K7 (not K9) (not N9))
       (or Y6 (not P9) (not C11))
       (or (not Y6) (not P9) (not S9))
       (or X6 (not R9) (not Y10))
       (or (not X6) (not R9) (not U9))
       (or W6 (not T9) (not U10))
       (or (not W6) (not T9) (not W9))
       (or (not V6) (not V9) (not C16))
       (or V6 (not V9) (not Y9))
       (or T6 (not X9) (not H10))
       (or (not T6) (not X9) (not B10))
       (or S6 (not A10) (not F10))
       (or (not S6) (not A10) (not D10))
       (or Q6 (not C10) (not P10))
       (or (not Q6) (not C10) (not L10))
       (or (not P6) (not E10) (not K10))
       (or O6 (not G10) (not O10))
       (or (not O6) (not G10) (not J10))
       (or (not J6) (not T10) (not D16))
       (or J6 (not T10) (not W10))
       (or (not F6) (not X10) (not E16))
       (or F6 (not X10) (not A11))
       (or B6 (not B11) (not M11))
       (or (not B6) (not B11) (not E11))
       (or (not A6) (not D11) (not F16))
       (or A6 (not D11) (not G11))
       (or Y5 (not F11) (not K11))
       (or (not Y5) (not F11) (not I11))
       (or (not T5) (not L11) (not G16))
       (or T5 (not L11) (not O11))
       (or N5 (not P11) (not T14))
       (or (not N5) (not P11) (not S11))
       (or M5 (not R11) (not I14))
       (or (not M5) (not R11) (not U11))
       (or L5 (not T11) (not U13))
       (or (not L5) (not T11) (not W11))
       (or K5 (not V11) (not O12))
       (or (not K5) (not V11) (not Y11))
       (or (not J5) (not X11) (not H16))
       (or J5 (not X11) (not A12))
       (or (not H5) (not Z11) (not C12))
       (or F5 (not B12) (not F12))
       (or (not X4) (not E12) (not I12))
       (or (not P4) (not H12) (not M12))
       (or (not L4) (not N12) (not I16))
       (or L4 (not N12) (not Q12))
       (or (not J4) (not P12) (not E13))
       (or J4 (not P12) (not T12))
       (or T3 (not S12) (not K13))
       (or (not T3) (not S12) (not V12))
       (or R3 (not U12) (not D13))
       (or (not R3) (not U12) (not X12))
       (or N3 (not W12) (not J13))
       (or (not N3) (not W12) (not A13))
       (or (not I3) (not Z12) (not I13))
       (or I3 (not Z12) (not C13))
       (or (not B3) (not T13) (not J16))
       (or B3 (not T13) (not W13))
       (or (not X2) (not V13) (not C14))
       (or X2 (not V13) (not Y13))
       (or O2 (not H14) (not P14))
       (or (not O2) (not H14) (not K14))
       (or (not N2) (not J14) (not K16))
       (or N2 (not J14) (not M14))
       (or (not F2) (not O14) (not L16))
       (or F2 (not O14) (not R14))
       (or E2 (not S14) (not R15))
       (or (not E2) (not S14) (not V14))
       (or D2 (not U14) (not G15))
       (or (not D2) (not U14) (not X14))
       (or C2 (not W14) (not B15))
       (or (not C2) (not W14) (not Z14))
       (or (not X1) (not A15) (not M16))
       (or X1 (not A15) (not D15))
       (or (not S1) (not F15) (not N16))
       (or S1 (not F15) (not I15))
       (or (not Q1) (not H15) (not N15))
       (or Q1 (not H15) (not K15))
       (or N1 (not Q15) (not V15))
       (or (not N1) (not Q15) (not T15))
       (or M1 (not S15) (not A17))
       (or (not M1) (not S15) (not O16))
       (or L1 (not U15) (not B17))
       (or (not L1) (not U15) (not P16))
       (or (not A1) (not C17) (not J17))
       (or A1 (not C17) (not G17))
       (or T (not H17) (not N17))
       (or (not T) (not H17) (not L17))
       (or (not J) (not O17) (not Q20))
       (or (= K8 I8) (not N20) (not R20))
       (or (= J8 H8) (not N20) (not R20))
       (or (= I8 I7) (not N20) (not R20))
       (or (= H8 G7) (not N20) (not R20))
       (or J (not O17) (not K20))
       (or D (not J20) (not P20))
       (or (not D) (not J20) (not M20))
       (or (not O17) (= J (and H I)))
       (or (not O17) (= I (= H7 0)))
       (or (not O17) (= H (= G 0)))
       (or (not O17) (= F (+ 852 E)))
       (or (not M17) (= N (+ 1 M)))
       (or (not M17) (= L (+ 76 K)))
       (or (not M17) (and H17 N17))
       (or (not K17) (= R (+ 1 Q)))
       (or (not K17) (= P (+ 72 O)))
       (or (not K17) (and H17 L17))
       (or (not H17) (= T (= S 12292)))
       (or (not F17) (= W (or V Z7)))
       (or (not F17) (= V (= U 0)))
       (or (not F17) (and C17 G17))
       (or (not C17) (= A1 (= Z 0)))
       (or (not C17) (= Y (= X 768)))
       a!1
       (or (not T16) (= F1 (= E1 0)))
       (or (not T16) (= D1 (= W7 3)))
       (or (not T16) (= W16 (ite D1 4 W7)))
       (or (not T16) (= I1 (ite F1 3 8640)))
       (or (not T16) (= H1 (+ 848 G1)))
       (or (not Q16) (= J1 (= K1 8673)))
       (or (not Q16) (and W15 R16))
       (or (not U15) (= L1 (= A8 8192)))
       (or (not U15) (and Q15 V15))
       (or (not S15) (= M1 (= A8 8195)))
       (or (not S15) (and Q15 T15))
       a!2
       (or (not Q15) (and S14 R15))
       (or (not L15) (= P1 (+ 848 O1)))
       (or (not J15) (and H15 K15))
       a!3
       (or (not H15) (and F15 I15))
       (or (not F15) (= S1 (= A8 8448)))
       (or (not F15) (and U14 G15))
       a!4
       (or (not C15) (= V1 (= W7 0)))
       (or (not C15) (= E15 (ite V1 1 W7)))
       (or (not C15) (and A15 D15))
       (or (not A15) (= X1 (<= W1 2)))
       (or (not A15) (= W1 (+ (- 8464) A8)))
       (or (not A15) (and W14 B15))
       a!5
       (or (not Y14) (= B2 (+ 848 A2)))
       (or (not Y14) (and W14 Z14))
       a!6
       (or (not W14) (and U14 X14))
       a!7
       (or (not U14) (and S14 V14))
       a!8
       (or (not S14) (and P11 T14))
       (or (not Q14) (and O14 R14))
       (or (not O14) (= F2 (= A8 8482)))
       (or (not O14) (and H14 P14))
       a!9
       (or (not L14) (= K2 (= J2 0)))
       (or (not L14) (= I2 (= W7 1)))
       (or (not L14) (= N14 (ite I2 2 W7)))
       (or (not L14) (= L2 (ite K2 8512 8656)))
       (or (not L14) (and J14 M14))
       (or (not J14) (= N2 (<= M2 1)))
       (or (not J14) (= M2 (+ (- 8496) A8)))
       (or (not J14) (and H14 K14))
       a!10
       (or (not H14) (and R11 I14))
       a!11
       (or (not X13) (= Q2 (= W7 2)))
       (or (not X13) (= Z13 (ite Q2 6 W7)))
       (or (not X13) (and V13 Y13))
       (or (not V13) (= X2 (= W2 0)))
       (or (not V13) (= V2 (+ 12 U2)))
       (or (not V13) (= T2 (+ 840 S2)))
       (or (not V13) (and T13 W13))
       (or (not T13) (= B3 (<= A3 1)))
       (or (not T13) (= A3 (+ (- 8512) A8)))
       (or (not T13) (and T11 U13))
       a!12
       (or (not B13) (= D3 (= W7 6)))
       (or (not B13) (= F13 (ite D3 7 W7)))
       a!13
       (or (not Z12) (= H3 (+ 512 G3)))
       (or (not Z12) (= F3 (* 128 Y12)))
       (or (not Z12) (and W12 A13))
       (or (not W12) (= N3 (= M3 0)))
       (or (not W12) (= L3 (+ 16 K3)))
       (or (not W12) (= J3 (+ 840 R12)))
       (or (not W12) (and U12 X12))
       (or (not U12) (= R3 (= Q3 0)))
       (or (not U12) (= P3 (+ 36 O3)))
       (or (not U12) (and S12 V12))
       (or (not S12) (= T3 (= S3 0)))
       (or (not S12) (and P12 T12))
       a!14
       (or (not P12) (= J4 (and G4 I4)))
       (or (not P12) (= I4 (= H4 0)))
       (or (not P12) (= G4 (= F4 0)))
       (or (not P12) (= E4 (+ 876 R12)))
       (or (not P12) (= D4 (ite C4 1 0)))
       (or (not P12) (= B4 (+ 876 W3)))
       (or (not P12) (= Z3 (+ 12 Y3)))
       (or (not P12) (= X3 (+ 840 W3)))
       (or (not P12) (and N12 Q12))
       (or (not N12) (= L4 (<= K4 1)))
       (or (not N12) (= K4 (+ (- 8528) A8)))
       (or (not N12) (and V11 O12))
       a!15
       (or (not L12) (= O4 (+ 848 N4)))
       (or (not L12) (and H12 M12))
       (or (not H12) (= P4 (= W7 8)))
       (or (not H12) (and E12 I12))
       a!16
       (or (not E12) (= X4 (and U4 W4)))
       (or (not E12) (= W4 (= V4 0)))
       (or (not E12) (= G12 (+ 900 D12)))
       (or (not E12) (= S4 (+ 12 R4)))
       (or (not E12) (= Q4 (+ 840 D12)))
       (or (not E12) (and B12 F12))
       (or (not B12) (= F5 (or C5 E5)))
       (or (not B12) (= E5 (= D5 0)))
       (or (not B12) (= C5 (= B5 0)))
       (or (not B12) (= A5 (+ 148 Z4)))
       (or (not B12) (and Z11 C12))
       (or (not Z11) (= H5 (= G5 0)))
       (or (not Z11) (and X11 A12))
       (or (not X11) (= J5 (<= I5 1)))
       (or (not X11) (= I5 (+ (- 8544) A8)))
       (or (not X11) (and V11 Y11))
       a!17
       (or (not V11) (and T11 W11))
       a!18
       (or (not T11) (and R11 U11))
       a!19
       (or (not R11) (and P11 S11))
       a!20
       (or (not P11) (and M8 Q11))
       a!21
       (or (not N11) (= R5 (+ 848 Q5)))
       (or (not N11) (and L11 O11))
       (or (not L11) (= T5 (<= S5 1)))
       (or (not L11) (= S5 (+ (- 8560) A8)))
       (or (not L11) (and B11 M11))
       (or (not J11) (and F11 K11))
       a!22
       (or (not H11) (and F11 I11))
       a!23
       (or (not F11) (= Y5 (= W5 2)))
       (or (not F11) (and D11 G11))
       (or (not D11) (= A6 (<= Z5 1)))
       (or (not D11) (= Z5 (+ (- 8576) A8)))
       (or (not D11) (and B11 E11))
       a!24
       (or (not B11) (and P9 C11))
       a!25
       (or (not Z10) (and X10 A11))
       (or (not X10) (= F6 (<= E6 1)))
       (or (not X10) (= E6 (+ (- 8592) A8)))
       (or (not X10) (and R9 Y10))
       a!26
       (or (not V10) (and T10 W10))
       (or (not T10) (= J6 (<= I6 1)))
       (or (not T10) (= I6 (+ (- 8608) A8)))
       (or (not T10) (and T9 U10))
       a!27
       (or (not M10) (= M6 (= L6 0)))
       (or (not M10) (= N6 (ite M6 8656 3)))
       (or (not G10) (= O6 (= W7 4)))
       (or (not G10) (and X9 H10))
       (or (not E10) (= P6 (= W7 5)))
       (or (not E10) (and A10 F10))
       (or (not C10) (= Q6 (= W7 7)))
       (or (not C10) (and A10 D10))
       a!28
       (or (not A10) (and X9 B10))
       a!29
       (or (not X9) (and V9 Y9))
       (or (not V9) (= V6 (<= U6 1)))
       (or (not V9) (= U6 (+ (- 8640) A8)))
       (or (not V9) (and T9 W9))
       a!30
       (or (not T9) (and R9 U9))
       a!31
       (or (not R9) (and P9 S9))
       a!32
       (or (not P9) (and O8 Q9))
       a!33
       (or (not M9) (= F7 (= W7 2)))
       (or (not M9) (= O9 (ite F7 3 W7)))
       (or (not M9) (= C7 (+ 172 B7)))
       (or (not M9) (= A7 (+ 840 Z6)))
       (or (not M9) (and K9 N9))
       (or (not K9) (= K7 (<= J7 1)))
       (or (not K9) (= J7 (+ (- 8656) A8)))
       (or (not K9) (and E9 L9))
       (or (not I9) (and G9 J9))
       (or (not G9) (= L7 (= A8 8672)))
       (or (not G9) (and E9 H9))
       a!34
       (or (not E9) (and Q8 F9))
       (or (not C9) (and A9 D9))
       (or (not A9) (= N7 (= A8 12292)))
       (or (not A9) (and S8 B9))
       (or (not Y8) (= O7 (= A8 16384)))
       (or (not Y8) (and U8 Z8))
       (or (not W8) (= P7 (= A8 24576)))
       (or (not W8) (and U8 X8))
       a!35
       (or (not U8) (and S8 V8))
       a!36
       (or (not S8) (and Q8 T8))
       a!37
       (or (not Q8) (and O8 R8))
       a!38
       (or (not O8) (and M8 P8))
       a!39
       (or (not M8) (and L8 N8))
       (or (not G8) (and N20 R20))
       (or (not F8) (not M9))
       (or (not E8) (not M9))
       (or (not B8) (not J15))
       (or (not Y7) (not H17))
       (or (not X7) (not K17))
       (or (not E7) (not M9))
       (or (not K6) (not M10))
       (or (not H6) (not V10))
       (or (not D6) (not Z10))
       (or (not X5) (not F11))
       (or (not V5) (not H11))
       (or (not P5) (not N11))
       (or (not M4) (not L12))
       (or (not E3) (not B13))
       (or (not R2) (not X13))
       (or (not H2) (not L14))
       (or (not Z1) (not Y14))
       (or (not U1) (not C15))
       (or J1 (not Q16))
       (or (not C1) (not T16))
       (or Y (not C17))
       (or (not W) (not F17))
       a!40
       (or (not L20) (and J20 M20))
       (or (not L20) (not B))
       (or (not J20) (= D (= C 0)))
       (or (not J20) (and K20 O17))
       (= G8 true)
       (or (and W8 X15)
           (and Y8 Y15)
           (and A9 Z15)
           (and G9 A16)
           (and K9 B16)
           (and V9 C16)
           (and T10 D16)
           (and X10 E16)
           (and D11 F16)
           (and L11 G16)
           (and X11 H16)
           (and N12 I16)
           (and T13 J16)
           (and J14 K16)
           (and O14 L16)
           (and A15 M16)
           (and F15 N16)
           (and S15 O16)
           (and U15 P16)
           (not W15))
       (= 1 v_539)))
      )
      (main_1 v_539 J8 K8 X7 Y7 Z7 A8 B8 C8 D8 E8 F8)
    )
  )
)
(assert
  (forall ( (A Int) (B Int) (C Int) (D Int) (E Int) (F Int) (G Bool) (H Int) (I Bool) (J Bool) (K Int) (L Int) (M Int) (N Int) (O Bool) (P Int) (Q Bool) (R Bool) (S Int) (T Bool) (U Int) (V Bool) (W Bool) (X Bool) (Y Bool) (Z Bool) (A1 Bool) (B1 Int) (C1 Int) (D1 Bool) (E1 Bool) (F1 Bool) (G1 Int) (H1 Bool) (I1 Int) (J1 Int) (K1 Bool) (L1 Bool) (M1 Bool) (N1 Int) (O1 Int) (P1 Bool) (Q1 Bool) (R1 Bool) (S1 Bool) (T1 Bool) (U1 Bool) (V1 Bool) (W1 Bool) (X1 Bool) (Y1 Bool) (Z1 Bool) (A2 Bool) (B2 Bool) (C2 Bool) (D2 Bool) (E2 Bool) (F2 Int) (G2 Bool) (H2 Bool) (I2 Int) (J2 Bool) (K2 Bool) (L2 Bool) (M2 Bool) (N2 Bool) (O2 Bool) (P2 Bool) (Q2 Bool) (R2 Bool) (S2 Bool) (T2 Bool) (U2 Bool) (v_73 Int) (v_74 Int) ) 
    (=>
      (and
        (main_1 v_73 B1 C1 D1 E1 F1 G1 H1 I1 J1 K1 L1)
        (let ((a!1 (or (not X1) (not (= (<= 8544 G1) W))))
      (a!2 (or (not V1) (not (= (<= 8528 G1) X))))
      (a!3 (or (not T1) (not (= (<= 8512 G1) Y))))
      (a!4 (or (not P1) (not (= (<= 8560 G1) A1))))
      (a!5 (or (not G2) (not (= (= F 0) G))))
      (a!6 (or (not R1) (not (= (<= 8482 G1) Z)))))
  (and (= 2 v_73)
       (or A1 (not P1) (not S1))
       (or (not Y) (not T1) (not W1))
       (or (not X) (not V1) (not Y1))
       (or (not R) (not D2) (not K2))
       (or R (not D2) (not H2))
       (or (not W) (not X1) (not A2))
       (or V (not Z1) (not C2))
       (or (not Z) (not R1) (not U1))
       (or (not T) (not B2) (not E2))
       (or (not U2) (not P2) (= O1 N1))
       (or (not U2) (not P2) (= N1 8560))
       (or T (not O2) (not B2))
       (or (not M2) (not G2) J)
       (or (not J2) (= K (+ 900 F2)))
       (or (not J2) (and K2 D2))
       (or (not D2) (= R (or O Q)))
       (or (not D2) (= Q (= P 0)))
       (or (not D2) (= O (= N 0)))
       (or (not D2) (= M (+ 148 L)))
       (or (not D2) (and B2 E2))
       a!1
       (or (not X1) (and V1 Y1))
       a!2
       (or (not V1) (and T1 W1))
       a!3
       (or (not T1) (and R1 U1))
       a!4
       (or (not P1) (and M1 Q1))
       (or (not L2) (and M2 G2))
       a!5
       (or (not G2) (= J (and G I)))
       (or (not G2) (= I (= H 0)))
       (or (not G2) (= I2 (+ 900 F2)))
       (or (not G2) (= E (+ 12 D)))
       (or (not G2) (= C (+ 840 F2)))
       (or (not G2) (and H2 D2))
       (or (not B2) (= T (= S 0)))
       (or (not B2) (and Z1 C2))
       (or (not Z1) (= V (<= U 1)))
       (or (not Z1) (= U (+ (- 8544) G1)))
       (or (not Z1) (and A2 X1))
       a!6
       (or (not R1) (and P1 S1))
       (or (not T2) (and U2 P2))
       (or (not N2) (= B (+ 900 A)))
       (or (not N2) (and O2 B2))
       (= T2 true)
       (or (and N2 Q2) (and L2 R2) (not P2) (and S2 J2))
       (= 2 v_74)))
      )
      (main_1 v_74 B1 C1 D1 E1 F1 O1 H1 I1 J1 K1 L1)
    )
  )
)
(assert
  (forall ( (A Bool) (B Int) (C Int) (D Int) (E Int) (F Bool) (G Int) (H Bool) (I Bool) (J Int) (K Int) (L Int) (M Int) (N Bool) (O Int) (P Bool) (Q Bool) (R Int) (S Bool) (T Int) (U Bool) (V Bool) (W Bool) (X Bool) (Y Bool) (Z Bool) (A1 Bool) (B1 Bool) (C1 Int) (D1 Bool) (E1 Bool) (F1 Bool) (G1 Bool) (H1 Bool) (I1 Bool) (J1 Int) (K1 Int) (L1 Bool) (M1 Bool) (N1 Bool) (O1 Int) (P1 Bool) (Q1 Int) (R1 Int) (S1 Bool) (T1 Bool) (U1 Bool) (V1 Bool) (W1 Bool) (X1 Bool) (Y1 Bool) (Z1 Bool) (A2 Bool) (B2 Bool) (C2 Bool) (D2 Bool) (E2 Bool) (F2 Bool) (G2 Bool) (H2 Bool) (I2 Bool) (J2 Bool) (K2 Bool) (L2 Bool) (M2 Bool) (N2 Bool) (O2 Bool) (P2 Bool) (Q2 Bool) (R2 Bool) (S2 Bool) (T2 Bool) (U2 Bool) (V2 Bool) (W2 Bool) (X2 Bool) (Y2 Bool) (Z2 Bool) (A3 Bool) (B3 Int) (C3 Bool) (D3 Bool) (E3 Int) (F3 Bool) (G3 Bool) (H3 Int) (I3 Bool) (J3 Bool) (K3 Bool) (v_89 Int) (v_90 Int) ) 
    (=>
      (and
        (main_1 v_89 J1 K1 L1 M1 N1 O1 P1 Q1 R1 S1 T1)
        (let ((a!1 (or (not D2) (not (= (<= 8640 O1) E1))))
      (a!2 (or (not Z1) (not (= (<= 8592 O1) G1))))
      (a!3 (or (not T2) (not (= (<= 8544 O1) V))))
      (a!4 (or (not N2) (not (= (<= 8482 O1) Y))))
      (a!5 (or (not J2) (not (= (<= 7 K1) A1))))
      (a!6 (or (not B2) (not (= (<= 8608 O1) F1))))
      (a!7 (or (not X1) (not (= (<= 8656 O1) H1))))
      (a!8 (or (not V1) (not (= (<= 8560 O1) I1))))
      (a!9 (or (not R2) (not (= (<= 8528 O1) W))))
      (a!10 (or (not P2) (not (= (<= 8512 O1) X))))
      (a!11 (or (not H2) (not (= (<= 5 K1) B1))))
      (a!12 (or (not C3) (not (= (= E 0) F)))))
  (and (= 2 v_89)
       (or D1 (not F2) (not I2))
       (or (not I1) (not V1) (not Y1))
       (or I1 (not O2) (not V1))
       (or H1 (not X1) (not A2))
       (or (not E1) (not D2) (not G2))
       (or (not I3) (and K3 F3) (and J3 L2))
       (or (not S) (not X2) (not A3))
       (or (not V) (not W2) (not T2))
       (or U (not V2) (not Y2))
       (or (not W) (not R2) (not U2))
       (or (not Y) (not N2) (not Q2))
       (or (not X) (not P2) (not S2))
       (or (not B1) (not H2) (not K2))
       (or (not E2) (not B2) (not F1))
       (or (not G1) (not Z1) (not C2))
       (or (not K3) (not F3) A)
       (or Z (not J3) (not L2))
       (or Q (not D3) (not Z2))
       (or (= J E3) (not C3) (not G3))
       (or (= H3 J) (not C3) (not G3))
       (or (not I) (not C3) (not G3))
       a!1
       (or (not D2) (and E2 B2))
       a!2
       (or (not Z1) (and X1 A2))
       (or (not Z2) (= Q (or N P)))
       (or (not Z2) (= P (= O 0)))
       (or (not Z2) (= N (= M 0)))
       (or (not Z2) (= L (+ 148 K)))
       (or (not Z2) (and X2 A3))
       a!3
       (or (not T2) (and R2 U2))
       a!4
       (or (not N2) (and V1 O2))
       (or (not L2) (= Z (= K1 5)))
       (or (not L2) (and J2 M2))
       a!5
       (or (not J2) (and H2 K2))
       (or (not F2) (= D1 (<= C1 1)))
       (or (not F2) (= C1 (+ (- 8640) O1)))
       (or (not F2) (and G2 D2))
       a!6
       (or (not B2) (and C2 Z1))
       a!7
       (or (not X1) (and V1 Y1))
       a!8
       (or (not V1) (and U1 W1))
       (or (not X2) (= S (= R 0)))
       (or (not X2) (and V2 Y2))
       (or (not F3) (= A (= K1 8)))
       (or (not F3) (and C3 G3))
       (or (not V2) (= U (<= T 1)))
       (or (not V2) (= T (+ (- 8544) O1)))
       (or (not V2) (and W2 T2))
       a!9
       (or (not R2) (and P2 S2))
       a!10
       (or (not P2) (and Q2 N2))
       a!11
       (or (not H2) (and F2 I2))
       a!12
       (or (not C3) (= I (and F H)))
       (or (not C3) (= H (= G 0)))
       (or (not C3) (= D (+ 12 C)))
       (or (not C3) (= B (+ 840 B3)))
       (or (not C3) (= E3 (+ 900 B3)))
       (or (not C3) (and D3 Z2))
       (= I3 true)
       (or A1 (not J2) (not M2))
       (= 3 v_90)))
      )
      (main_1 v_90 J1 K1 L1 M1 N1 O1 P1 Q1 R1 S1 T1)
    )
  )
)
(assert
  (forall ( (A Int) (B Int) (C Bool) (D Bool) (E Bool) (F Int) (G Bool) (H Int) (I Int) (J Bool) (K Bool) (v_11 Int) ) 
    (=>
      (and
        (main_1 v_11 A B C D E F G H I J K)
        (= 3 v_11)
      )
      false
    )
  )
)

(check-sat)
(exit)
